
  32    4
  10   10   10   10

   0   0   0   0   0  22 2 3 4 6 7 15 16 17 18 19 20 21 22 23 24 25 26 27 28 29 30 31 
   2   1   1   1   0   4 14 13 12 9 
   6   4   3   7   0   2 11 8 
   3   0   4   6   1   1 5 
   5   3   2   0   3   1 8 
   7   3   6   0   3   1 10 
   4   4   5   0   2   1 9 
   5   2   0   6   3   1 32
   3   2   6   4   0   1 32
   2   9   7   0   6   1 32
   5   5   4   0   4   1 32
   4   5   0   6   6   1 32
   9   3   2   0   9   1 32
   5   4   0   3   2   1 32
   7   5   0   4   3   1 32
   9   4   3   3   0   1 32
   1   6   0   3   2   1 32
  10   4   3   0   6   1 32
  10   8   5   2   0   1 32
   7   4   5   0   6   1 32
   4   2   0   2   2   1 32
   2   3   0   3   4   1 32
   4   0   3   3   5   1 32
   9   2   0   1   2   1 32
  10   2   3   5   0   1 32
   3   4   5   6   0   1 32
   3   4   0   4   5   1 32
   3   3   5   8   0   1 32
  10   3   4   4   0   1 32
   5   9   0   2   3   1 32
   3   0   4   5   7   1 32
   0   0   0   0   0   0 
